predicate circuitChoco(array [int] of var int: x);
array [1..7] of int: X_INTRODUCED_189_ = [0,4,3,2,2,5,5];
array [1..3] of int: X_INTRODUCED_194_ = [1,1,-1];
array [1..7] of int: X_INTRODUCED_195_ = [4,0,2,7,7,3,3];
array [1..7] of int: X_INTRODUCED_199_ = [3,2,0,2,2,3,3];
array [1..7] of int: X_INTRODUCED_207_ = [4,0,4,9,9,5,5];
array [1..7] of int: X_INTRODUCED_211_ = [3,4,0,2,2,3,3];
array [1..7] of int: X_INTRODUCED_215_ = [0,2,3,2,2,5,5];
array [1..7] of int: X_INTRODUCED_220_ = [2,0,4,5,5,5,5];
array [1..7] of int: X_INTRODUCED_227_ = [0,8,3,2,2,5,5];
array [1..7] of int: X_INTRODUCED_232_ = [8,0,6,1,1,5,5];
array [1..7] of int: X_INTRODUCED_236_ = [3,6,0,7,7,3,3];
array [1..7] of int: X_INTRODUCED_240_ = [2,7,2,0,0,0,0];
array [1..7] of int: X_INTRODUCED_247_ = [2,9,2,0,0,0,0];
array [1..7] of int: X_INTRODUCED_254_ = [2,5,2,0,0,0,0];
array [1..7] of int: X_INTRODUCED_261_ = [2,1,7,0,0,0,0];
array [1..5] of int: X_INTRODUCED_338_ = [1,-2,-2,-1,-3];
var 1..7: X_INTRODUCED_0_;
var 1..7: X_INTRODUCED_1_;
var 1..7: X_INTRODUCED_2_;
var 1..7: X_INTRODUCED_3_;
var 1..7: X_INTRODUCED_4_;
var 1..7: X_INTRODUCED_7_;
var 1..7: X_INTRODUCED_8_;
var 1..7: X_INTRODUCED_9_;
var 1..7: X_INTRODUCED_10_;
var 1..7: X_INTRODUCED_11_;
var 1..7: X_INTRODUCED_14_;
var 1..7: X_INTRODUCED_15_;
var 1..7: X_INTRODUCED_16_;
var 1..7: X_INTRODUCED_17_;
var 1..7: X_INTRODUCED_18_;
var 1..7: X_INTRODUCED_21_;
var 1..7: X_INTRODUCED_22_;
var 1..7: X_INTRODUCED_23_;
var 1..7: X_INTRODUCED_24_;
var 1..7: X_INTRODUCED_25_;
var 1..7: X_INTRODUCED_28_;
var 1..7: X_INTRODUCED_29_;
var 1..7: X_INTRODUCED_30_;
var 1..7: X_INTRODUCED_33_;
var 1..7: X_INTRODUCED_34_;
var 1..7: X_INTRODUCED_35_;
var 1..7: X_INTRODUCED_36_;
var 1..7: X_INTRODUCED_37_;
var 1..7: X_INTRODUCED_40_;
var 1..7: X_INTRODUCED_41_;
var 1..7: X_INTRODUCED_42_;
var 1..7: X_INTRODUCED_43_;
var 1..7: X_INTRODUCED_44_;
var 1..7: X_INTRODUCED_47_;
var 1..7: X_INTRODUCED_48_;
var 1..7: X_INTRODUCED_49_;
var 1..7: X_INTRODUCED_50_;
var 1..7: X_INTRODUCED_51_;
var 1..7: X_INTRODUCED_54_;
var 1..7: X_INTRODUCED_55_;
var 1..2: X_INTRODUCED_56_;
var 1..2: X_INTRODUCED_57_:: is_defined_var;
var 1..2: X_INTRODUCED_58_;
var 0..50: X_INTRODUCED_63_;
var 0..50: X_INTRODUCED_64_;
var 0..50: X_INTRODUCED_65_;
var 0..50: X_INTRODUCED_68_;
var 0..50: X_INTRODUCED_69_;
var 0..50: X_INTRODUCED_70_;
var 0..50: X_INTRODUCED_71_;
var 0..50: X_INTRODUCED_72_;
var 0..50: X_INTRODUCED_75_;
var 0..50: X_INTRODUCED_76_;
var 0..50: X_INTRODUCED_77_;
var 0..50: X_INTRODUCED_78_;
var 0..50: X_INTRODUCED_79_;
var 0..50: X_INTRODUCED_82_;
var 0..50: X_INTRODUCED_83_;
var 0..50: X_INTRODUCED_84_;
var 0..50: X_INTRODUCED_85_;
var 0..50: X_INTRODUCED_86_;
var 0..50: X_INTRODUCED_89_;
var 0..50: X_INTRODUCED_90_;
var 0..400: objective:: output_var:: is_defined_var;
var 0..5: X_INTRODUCED_190_ ::var_is_introduced :: is_defined_var;
var 0..50: X_INTRODUCED_193_ ::var_is_introduced :: is_defined_var;
var 0..7: X_INTRODUCED_196_ ::var_is_introduced :: is_defined_var;
var 0..50: X_INTRODUCED_198_ ::var_is_introduced :: is_defined_var;
var 0..3: X_INTRODUCED_200_ ::var_is_introduced :: is_defined_var;
var 0..50: X_INTRODUCED_202_ ::var_is_introduced :: is_defined_var;
var 0..5: X_INTRODUCED_203_ ::var_is_introduced :: is_defined_var;
var 0..50: X_INTRODUCED_206_ ::var_is_introduced :: is_defined_var;
var 0..9: X_INTRODUCED_208_ ::var_is_introduced :: is_defined_var;
var 0..50: X_INTRODUCED_210_ ::var_is_introduced :: is_defined_var;
var 0..4: X_INTRODUCED_212_ ::var_is_introduced :: is_defined_var;
var 0..50: X_INTRODUCED_214_ ::var_is_introduced :: is_defined_var;
var 0..5: X_INTRODUCED_216_ ::var_is_introduced :: is_defined_var;
var 0..50: X_INTRODUCED_219_ ::var_is_introduced :: is_defined_var;
var 0..5: X_INTRODUCED_221_ ::var_is_introduced :: is_defined_var;
var 0..50: X_INTRODUCED_223_ ::var_is_introduced :: is_defined_var;
var 0..4: X_INTRODUCED_224_ ::var_is_introduced :: is_defined_var;
var 0..50: X_INTRODUCED_226_ ::var_is_introduced :: is_defined_var;
var 0..8: X_INTRODUCED_228_ ::var_is_introduced :: is_defined_var;
var 0..50: X_INTRODUCED_231_ ::var_is_introduced :: is_defined_var;
var 0..8: X_INTRODUCED_233_ ::var_is_introduced :: is_defined_var;
var 0..50: X_INTRODUCED_235_ ::var_is_introduced :: is_defined_var;
var 0..7: X_INTRODUCED_237_ ::var_is_introduced :: is_defined_var;
var 0..50: X_INTRODUCED_239_ ::var_is_introduced :: is_defined_var;
var 0..7: X_INTRODUCED_241_ ::var_is_introduced :: is_defined_var;
var 0..50: X_INTRODUCED_243_ ::var_is_introduced :: is_defined_var;
var 0..7: X_INTRODUCED_244_ ::var_is_introduced :: is_defined_var;
var 0..50: X_INTRODUCED_246_ ::var_is_introduced :: is_defined_var;
var 0..9: X_INTRODUCED_248_ ::var_is_introduced :: is_defined_var;
var 0..50: X_INTRODUCED_250_ ::var_is_introduced :: is_defined_var;
var 0..9: X_INTRODUCED_251_ ::var_is_introduced :: is_defined_var;
var 0..50: X_INTRODUCED_253_ ::var_is_introduced :: is_defined_var;
var 0..5: X_INTRODUCED_255_ ::var_is_introduced :: is_defined_var;
var 0..50: X_INTRODUCED_257_ ::var_is_introduced :: is_defined_var;
var 0..5: X_INTRODUCED_258_ ::var_is_introduced :: is_defined_var;
var 0..50: X_INTRODUCED_260_ ::var_is_introduced :: is_defined_var;
var 0..7: X_INTRODUCED_262_ ::var_is_introduced :: is_defined_var;
var 0..50: X_INTRODUCED_264_ ::var_is_introduced :: is_defined_var;
var 0..7: X_INTRODUCED_265_ ::var_is_introduced :: is_defined_var;
var 0..50: X_INTRODUCED_267_ ::var_is_introduced :: is_defined_var;
var 0..50: X_INTRODUCED_278_ ::var_is_introduced :: is_defined_var;
var 0..50: X_INTRODUCED_279_ ::var_is_introduced :: is_defined_var;
var 0..50: X_INTRODUCED_280_ ::var_is_introduced :: is_defined_var;
var 0..50: X_INTRODUCED_281_ ::var_is_introduced :: is_defined_var;
var 0..50: X_INTRODUCED_282_ ::var_is_introduced :: is_defined_var;
var 0..50: X_INTRODUCED_283_ ::var_is_introduced :: is_defined_var;
var 0..50: X_INTRODUCED_296_ ::var_is_introduced :: is_defined_var;
var 0..50: X_INTRODUCED_297_ ::var_is_introduced :: is_defined_var;
var 0..50: X_INTRODUCED_298_ ::var_is_introduced :: is_defined_var;
var 0..50: X_INTRODUCED_299_ ::var_is_introduced :: is_defined_var;
var 0..50: X_INTRODUCED_300_ ::var_is_introduced :: is_defined_var;
var 0..50: X_INTRODUCED_301_ ::var_is_introduced :: is_defined_var;
var 0..50: X_INTRODUCED_313_ ::var_is_introduced :: is_defined_var;
var 0..50: X_INTRODUCED_314_ ::var_is_introduced :: is_defined_var;
var 0..50: X_INTRODUCED_315_ ::var_is_introduced :: is_defined_var;
var 0..50: X_INTRODUCED_316_ ::var_is_introduced :: is_defined_var;
var 0..50: X_INTRODUCED_317_ ::var_is_introduced :: is_defined_var;
var 0..50: X_INTRODUCED_318_ ::var_is_introduced :: is_defined_var;
var 0..50: X_INTRODUCED_329_ ::var_is_introduced :: is_defined_var;
var 0..50: X_INTRODUCED_330_ ::var_is_introduced :: is_defined_var;
var 0..50: X_INTRODUCED_331_ ::var_is_introduced :: is_defined_var;
var 0..50: X_INTRODUCED_332_ ::var_is_introduced :: is_defined_var;
var 0..50: X_INTRODUCED_333_ ::var_is_introduced :: is_defined_var;
var 0..50: X_INTRODUCED_334_ ::var_is_introduced :: is_defined_var;
array [1..28] of var int: successor:: output_array([1..4,1..7]) = [X_INTRODUCED_0_,X_INTRODUCED_1_,X_INTRODUCED_2_,X_INTRODUCED_3_,X_INTRODUCED_4_,5,4,X_INTRODUCED_7_,X_INTRODUCED_8_,X_INTRODUCED_9_,X_INTRODUCED_10_,X_INTRODUCED_11_,5,4,X_INTRODUCED_14_,X_INTRODUCED_15_,X_INTRODUCED_16_,X_INTRODUCED_17_,X_INTRODUCED_18_,5,4,X_INTRODUCED_21_,X_INTRODUCED_22_,X_INTRODUCED_23_,X_INTRODUCED_24_,X_INTRODUCED_25_,5,4];
array [1..28] of var int: predecessor:: output_array([1..4,1..7]) = [X_INTRODUCED_28_,X_INTRODUCED_29_,X_INTRODUCED_30_,7,6,X_INTRODUCED_33_,X_INTRODUCED_34_,X_INTRODUCED_35_,X_INTRODUCED_36_,X_INTRODUCED_37_,7,6,X_INTRODUCED_40_,X_INTRODUCED_41_,X_INTRODUCED_42_,X_INTRODUCED_43_,X_INTRODUCED_44_,7,6,X_INTRODUCED_47_,X_INTRODUCED_48_,X_INTRODUCED_49_,X_INTRODUCED_50_,X_INTRODUCED_51_,7,6,X_INTRODUCED_54_,X_INTRODUCED_55_];
array [1..7] of var int: vehicle:: output_array([1..7]) = [X_INTRODUCED_56_,X_INTRODUCED_57_,X_INTRODUCED_58_,1,2,1,2];
array [1..28] of var int: arrivalTime:: output_array([1..4,1..7]) = [X_INTRODUCED_63_,X_INTRODUCED_64_,X_INTRODUCED_65_,0,0,X_INTRODUCED_68_,X_INTRODUCED_69_,X_INTRODUCED_70_,X_INTRODUCED_71_,X_INTRODUCED_72_,0,0,X_INTRODUCED_75_,X_INTRODUCED_76_,X_INTRODUCED_77_,X_INTRODUCED_78_,X_INTRODUCED_79_,0,0,X_INTRODUCED_82_,X_INTRODUCED_83_,X_INTRODUCED_84_,X_INTRODUCED_85_,X_INTRODUCED_86_,0,0,X_INTRODUCED_89_,X_INTRODUCED_90_];
array [1..7] of var int: X_INTRODUCED_92_ ::var_is_introduced  = [X_INTRODUCED_0_,X_INTRODUCED_1_,X_INTRODUCED_2_,X_INTRODUCED_3_,X_INTRODUCED_4_,5,4];
array [1..7] of var int: X_INTRODUCED_100_ ::var_is_introduced  = [X_INTRODUCED_7_,X_INTRODUCED_8_,X_INTRODUCED_9_,X_INTRODUCED_10_,X_INTRODUCED_11_,5,4];
array [1..7] of var int: X_INTRODUCED_108_ ::var_is_introduced  = [X_INTRODUCED_14_,X_INTRODUCED_15_,X_INTRODUCED_16_,X_INTRODUCED_17_,X_INTRODUCED_18_,5,4];
array [1..7] of var int: X_INTRODUCED_116_ ::var_is_introduced  = [X_INTRODUCED_21_,X_INTRODUCED_22_,X_INTRODUCED_23_,X_INTRODUCED_24_,X_INTRODUCED_25_,5,4];
array [1..7] of var int: X_INTRODUCED_124_ ::var_is_introduced  = [X_INTRODUCED_28_,X_INTRODUCED_29_,X_INTRODUCED_30_,7,6,X_INTRODUCED_33_,X_INTRODUCED_34_];
array [1..7] of var int: X_INTRODUCED_132_ ::var_is_introduced  = [X_INTRODUCED_35_,X_INTRODUCED_36_,X_INTRODUCED_37_,7,6,X_INTRODUCED_40_,X_INTRODUCED_41_];
array [1..7] of var int: X_INTRODUCED_140_ ::var_is_introduced  = [X_INTRODUCED_42_,X_INTRODUCED_43_,X_INTRODUCED_44_,7,6,X_INTRODUCED_47_,X_INTRODUCED_48_];
array [1..7] of var int: X_INTRODUCED_148_ ::var_is_introduced  = [X_INTRODUCED_49_,X_INTRODUCED_50_,X_INTRODUCED_51_,7,6,X_INTRODUCED_54_,X_INTRODUCED_55_];
array [1..7] of var int: X_INTRODUCED_156_ ::var_is_introduced  = [X_INTRODUCED_0_,X_INTRODUCED_1_,X_INTRODUCED_2_,X_INTRODUCED_3_,X_INTRODUCED_4_,5,4];
array [1..7] of var int: X_INTRODUCED_157_ ::var_is_introduced  = [X_INTRODUCED_7_,X_INTRODUCED_8_,X_INTRODUCED_9_,X_INTRODUCED_10_,X_INTRODUCED_11_,5,4];
array [1..7] of var int: X_INTRODUCED_158_ ::var_is_introduced  = [X_INTRODUCED_14_,X_INTRODUCED_15_,X_INTRODUCED_16_,X_INTRODUCED_17_,X_INTRODUCED_18_,5,4];
array [1..7] of var int: X_INTRODUCED_159_ ::var_is_introduced  = [X_INTRODUCED_21_,X_INTRODUCED_22_,X_INTRODUCED_23_,X_INTRODUCED_24_,X_INTRODUCED_25_,5,4];
array [1..7] of var int: X_INTRODUCED_160_ ::var_is_introduced  = [X_INTRODUCED_28_,X_INTRODUCED_29_,X_INTRODUCED_30_,7,6,X_INTRODUCED_33_,X_INTRODUCED_34_];
array [1..7] of var int: X_INTRODUCED_161_ ::var_is_introduced  = [X_INTRODUCED_35_,X_INTRODUCED_36_,X_INTRODUCED_37_,7,6,X_INTRODUCED_40_,X_INTRODUCED_41_];
array [1..7] of var int: X_INTRODUCED_162_ ::var_is_introduced  = [X_INTRODUCED_42_,X_INTRODUCED_43_,X_INTRODUCED_44_,7,6,X_INTRODUCED_47_,X_INTRODUCED_48_];
array [1..7] of var int: X_INTRODUCED_163_ ::var_is_introduced  = [X_INTRODUCED_49_,X_INTRODUCED_50_,X_INTRODUCED_51_,7,6,X_INTRODUCED_54_,X_INTRODUCED_55_];
array [1..7] of var int: X_INTRODUCED_192_ ::var_is_introduced  = [X_INTRODUCED_63_,X_INTRODUCED_64_,X_INTRODUCED_65_,0,0,X_INTRODUCED_68_,X_INTRODUCED_69_];
array [1..7] of var int: X_INTRODUCED_205_ ::var_is_introduced  = [X_INTRODUCED_70_,X_INTRODUCED_71_,X_INTRODUCED_72_,0,0,X_INTRODUCED_75_,X_INTRODUCED_76_];
array [1..7] of var int: X_INTRODUCED_218_ ::var_is_introduced  = [X_INTRODUCED_77_,X_INTRODUCED_78_,X_INTRODUCED_79_,0,0,X_INTRODUCED_82_,X_INTRODUCED_83_];
array [1..7] of var int: X_INTRODUCED_230_ ::var_is_introduced  = [X_INTRODUCED_84_,X_INTRODUCED_85_,X_INTRODUCED_86_,0,0,X_INTRODUCED_89_,X_INTRODUCED_90_];
array [1..28] of var int: X_INTRODUCED_339_ ::var_is_introduced  = [X_INTRODUCED_63_,X_INTRODUCED_64_,X_INTRODUCED_65_,0,0,X_INTRODUCED_68_,X_INTRODUCED_69_,X_INTRODUCED_70_,X_INTRODUCED_71_,X_INTRODUCED_72_,0,0,X_INTRODUCED_75_,X_INTRODUCED_76_,X_INTRODUCED_77_,X_INTRODUCED_78_,X_INTRODUCED_79_,0,0,X_INTRODUCED_82_,X_INTRODUCED_83_,X_INTRODUCED_84_,X_INTRODUCED_85_,X_INTRODUCED_86_,0,0,X_INTRODUCED_89_,X_INTRODUCED_90_];
array [1..28] of var int: X_INTRODUCED_340_ ::var_is_introduced  = [X_INTRODUCED_0_,X_INTRODUCED_1_,X_INTRODUCED_2_,X_INTRODUCED_3_,X_INTRODUCED_4_,5,4,X_INTRODUCED_7_,X_INTRODUCED_8_,X_INTRODUCED_9_,X_INTRODUCED_10_,X_INTRODUCED_11_,5,4,X_INTRODUCED_14_,X_INTRODUCED_15_,X_INTRODUCED_16_,X_INTRODUCED_17_,X_INTRODUCED_18_,5,4,X_INTRODUCED_21_,X_INTRODUCED_22_,X_INTRODUCED_23_,X_INTRODUCED_24_,X_INTRODUCED_25_,5,4];
constraint array_var_int_element(X_INTRODUCED_28_,X_INTRODUCED_92_,1);
constraint array_var_int_element(X_INTRODUCED_29_,X_INTRODUCED_92_,2);
constraint array_var_int_element(X_INTRODUCED_30_,X_INTRODUCED_92_,3);
constraint array_var_int_element(X_INTRODUCED_33_,X_INTRODUCED_92_,6);
constraint array_var_int_element(X_INTRODUCED_34_,X_INTRODUCED_92_,7);
constraint array_var_int_element(X_INTRODUCED_35_,X_INTRODUCED_100_,1);
constraint array_var_int_element(X_INTRODUCED_36_,X_INTRODUCED_100_,2);
constraint array_var_int_element(X_INTRODUCED_37_,X_INTRODUCED_100_,3);
constraint array_var_int_element(X_INTRODUCED_40_,X_INTRODUCED_100_,6);
constraint array_var_int_element(X_INTRODUCED_41_,X_INTRODUCED_100_,7);
constraint array_var_int_element(X_INTRODUCED_42_,X_INTRODUCED_108_,1);
constraint array_var_int_element(X_INTRODUCED_43_,X_INTRODUCED_108_,2);
constraint array_var_int_element(X_INTRODUCED_44_,X_INTRODUCED_108_,3);
constraint array_var_int_element(X_INTRODUCED_47_,X_INTRODUCED_108_,6);
constraint array_var_int_element(X_INTRODUCED_48_,X_INTRODUCED_108_,7);
constraint array_var_int_element(X_INTRODUCED_49_,X_INTRODUCED_116_,1);
constraint array_var_int_element(X_INTRODUCED_50_,X_INTRODUCED_116_,2);
constraint array_var_int_element(X_INTRODUCED_51_,X_INTRODUCED_116_,3);
constraint array_var_int_element(X_INTRODUCED_54_,X_INTRODUCED_116_,6);
constraint array_var_int_element(X_INTRODUCED_55_,X_INTRODUCED_116_,7);
constraint array_var_int_element(X_INTRODUCED_0_,X_INTRODUCED_124_,1);
constraint array_var_int_element(X_INTRODUCED_1_,X_INTRODUCED_124_,2);
constraint array_var_int_element(X_INTRODUCED_2_,X_INTRODUCED_124_,3);
constraint array_var_int_element(X_INTRODUCED_3_,X_INTRODUCED_124_,4);
constraint array_var_int_element(X_INTRODUCED_4_,X_INTRODUCED_124_,5);
constraint array_var_int_element(X_INTRODUCED_7_,X_INTRODUCED_132_,1);
constraint array_var_int_element(X_INTRODUCED_8_,X_INTRODUCED_132_,2);
constraint array_var_int_element(X_INTRODUCED_9_,X_INTRODUCED_132_,3);
constraint array_var_int_element(X_INTRODUCED_10_,X_INTRODUCED_132_,4);
constraint array_var_int_element(X_INTRODUCED_11_,X_INTRODUCED_132_,5);
constraint array_var_int_element(X_INTRODUCED_14_,X_INTRODUCED_140_,1);
constraint array_var_int_element(X_INTRODUCED_15_,X_INTRODUCED_140_,2);
constraint array_var_int_element(X_INTRODUCED_16_,X_INTRODUCED_140_,3);
constraint array_var_int_element(X_INTRODUCED_17_,X_INTRODUCED_140_,4);
constraint array_var_int_element(X_INTRODUCED_18_,X_INTRODUCED_140_,5);
constraint array_var_int_element(X_INTRODUCED_21_,X_INTRODUCED_148_,1);
constraint array_var_int_element(X_INTRODUCED_22_,X_INTRODUCED_148_,2);
constraint array_var_int_element(X_INTRODUCED_23_,X_INTRODUCED_148_,3);
constraint array_var_int_element(X_INTRODUCED_24_,X_INTRODUCED_148_,4);
constraint array_var_int_element(X_INTRODUCED_25_,X_INTRODUCED_148_,5);
constraint circuitChoco(X_INTRODUCED_156_);
constraint circuitChoco(X_INTRODUCED_157_);
constraint circuitChoco(X_INTRODUCED_158_);
constraint circuitChoco(X_INTRODUCED_159_);
constraint circuitChoco(X_INTRODUCED_160_);
constraint circuitChoco(X_INTRODUCED_161_);
constraint circuitChoco(X_INTRODUCED_162_);
constraint circuitChoco(X_INTRODUCED_163_);
constraint array_var_int_element(X_INTRODUCED_28_,vehicle,X_INTRODUCED_56_);
constraint array_var_int_element(X_INTRODUCED_29_,vehicle,X_INTRODUCED_57_):: defines_var(X_INTRODUCED_57_);
constraint array_var_int_element(X_INTRODUCED_30_,vehicle,X_INTRODUCED_58_);
constraint array_var_int_element(X_INTRODUCED_35_,vehicle,X_INTRODUCED_56_);
constraint array_var_int_element(X_INTRODUCED_36_,vehicle,X_INTRODUCED_57_);
constraint array_var_int_element(X_INTRODUCED_37_,vehicle,X_INTRODUCED_58_);
constraint array_var_int_element(X_INTRODUCED_42_,vehicle,X_INTRODUCED_56_);
constraint array_var_int_element(X_INTRODUCED_43_,vehicle,X_INTRODUCED_57_);
constraint array_var_int_element(X_INTRODUCED_44_,vehicle,X_INTRODUCED_58_);
constraint array_var_int_element(X_INTRODUCED_49_,vehicle,X_INTRODUCED_56_);
constraint array_var_int_element(X_INTRODUCED_50_,vehicle,X_INTRODUCED_57_);
constraint array_var_int_element(X_INTRODUCED_51_,vehicle,X_INTRODUCED_58_);
constraint array_var_int_element(X_INTRODUCED_0_,vehicle,X_INTRODUCED_56_);
constraint array_var_int_element(X_INTRODUCED_1_,vehicle,X_INTRODUCED_57_);
constraint array_var_int_element(X_INTRODUCED_2_,vehicle,X_INTRODUCED_58_);
constraint array_var_int_element(X_INTRODUCED_7_,vehicle,X_INTRODUCED_56_);
constraint array_var_int_element(X_INTRODUCED_8_,vehicle,X_INTRODUCED_57_);
constraint array_var_int_element(X_INTRODUCED_9_,vehicle,X_INTRODUCED_58_);
constraint array_var_int_element(X_INTRODUCED_14_,vehicle,X_INTRODUCED_56_);
constraint array_var_int_element(X_INTRODUCED_15_,vehicle,X_INTRODUCED_57_);
constraint array_var_int_element(X_INTRODUCED_16_,vehicle,X_INTRODUCED_58_);
constraint array_var_int_element(X_INTRODUCED_21_,vehicle,X_INTRODUCED_56_);
constraint array_var_int_element(X_INTRODUCED_22_,vehicle,X_INTRODUCED_57_);
constraint array_var_int_element(X_INTRODUCED_23_,vehicle,X_INTRODUCED_58_);
constraint array_int_element(X_INTRODUCED_0_,X_INTRODUCED_189_,X_INTRODUCED_190_):: defines_var(X_INTRODUCED_190_);
constraint array_var_int_element(X_INTRODUCED_0_,X_INTRODUCED_192_,X_INTRODUCED_193_):: defines_var(X_INTRODUCED_193_);
constraint int_lin_le(X_INTRODUCED_194_,[X_INTRODUCED_63_,X_INTRODUCED_190_,X_INTRODUCED_193_],-5);
constraint array_int_element(X_INTRODUCED_1_,X_INTRODUCED_195_,X_INTRODUCED_196_):: defines_var(X_INTRODUCED_196_);
constraint array_var_int_element(X_INTRODUCED_1_,X_INTRODUCED_192_,X_INTRODUCED_198_):: defines_var(X_INTRODUCED_198_);
constraint int_lin_le(X_INTRODUCED_194_,[X_INTRODUCED_64_,X_INTRODUCED_196_,X_INTRODUCED_198_],-3);
constraint array_int_element(X_INTRODUCED_2_,X_INTRODUCED_199_,X_INTRODUCED_200_):: defines_var(X_INTRODUCED_200_);
constraint array_var_int_element(X_INTRODUCED_2_,X_INTRODUCED_192_,X_INTRODUCED_202_):: defines_var(X_INTRODUCED_202_);
constraint int_lin_le(X_INTRODUCED_194_,[X_INTRODUCED_65_,X_INTRODUCED_200_,X_INTRODUCED_202_],-2);
constraint array_int_element(X_INTRODUCED_7_,X_INTRODUCED_189_,X_INTRODUCED_203_):: defines_var(X_INTRODUCED_203_);
constraint array_var_int_element(X_INTRODUCED_7_,X_INTRODUCED_205_,X_INTRODUCED_206_):: defines_var(X_INTRODUCED_206_);
constraint int_lin_le(X_INTRODUCED_194_,[X_INTRODUCED_70_,X_INTRODUCED_203_,X_INTRODUCED_206_],-5);
constraint array_int_element(X_INTRODUCED_8_,X_INTRODUCED_207_,X_INTRODUCED_208_):: defines_var(X_INTRODUCED_208_);
constraint array_var_int_element(X_INTRODUCED_8_,X_INTRODUCED_205_,X_INTRODUCED_210_):: defines_var(X_INTRODUCED_210_);
constraint int_lin_le(X_INTRODUCED_194_,[X_INTRODUCED_71_,X_INTRODUCED_208_,X_INTRODUCED_210_],-3);
constraint array_int_element(X_INTRODUCED_9_,X_INTRODUCED_211_,X_INTRODUCED_212_):: defines_var(X_INTRODUCED_212_);
constraint array_var_int_element(X_INTRODUCED_9_,X_INTRODUCED_205_,X_INTRODUCED_214_):: defines_var(X_INTRODUCED_214_);
constraint int_lin_le(X_INTRODUCED_194_,[X_INTRODUCED_72_,X_INTRODUCED_212_,X_INTRODUCED_214_],-2);
constraint array_int_element(X_INTRODUCED_14_,X_INTRODUCED_215_,X_INTRODUCED_216_):: defines_var(X_INTRODUCED_216_);
constraint array_var_int_element(X_INTRODUCED_14_,X_INTRODUCED_218_,X_INTRODUCED_219_):: defines_var(X_INTRODUCED_219_);
constraint int_lin_le(X_INTRODUCED_194_,[X_INTRODUCED_77_,X_INTRODUCED_216_,X_INTRODUCED_219_],-5);
constraint array_int_element(X_INTRODUCED_15_,X_INTRODUCED_220_,X_INTRODUCED_221_):: defines_var(X_INTRODUCED_221_);
constraint array_var_int_element(X_INTRODUCED_15_,X_INTRODUCED_218_,X_INTRODUCED_223_):: defines_var(X_INTRODUCED_223_);
constraint int_lin_le(X_INTRODUCED_194_,[X_INTRODUCED_78_,X_INTRODUCED_221_,X_INTRODUCED_223_],-3);
constraint array_int_element(X_INTRODUCED_16_,X_INTRODUCED_211_,X_INTRODUCED_224_):: defines_var(X_INTRODUCED_224_);
constraint array_var_int_element(X_INTRODUCED_16_,X_INTRODUCED_218_,X_INTRODUCED_226_):: defines_var(X_INTRODUCED_226_);
constraint int_lin_le(X_INTRODUCED_194_,[X_INTRODUCED_79_,X_INTRODUCED_224_,X_INTRODUCED_226_],-2);
constraint array_int_element(X_INTRODUCED_21_,X_INTRODUCED_227_,X_INTRODUCED_228_):: defines_var(X_INTRODUCED_228_);
constraint array_var_int_element(X_INTRODUCED_21_,X_INTRODUCED_230_,X_INTRODUCED_231_):: defines_var(X_INTRODUCED_231_);
constraint int_lin_le(X_INTRODUCED_194_,[X_INTRODUCED_84_,X_INTRODUCED_228_,X_INTRODUCED_231_],-5);
constraint array_int_element(X_INTRODUCED_22_,X_INTRODUCED_232_,X_INTRODUCED_233_):: defines_var(X_INTRODUCED_233_);
constraint array_var_int_element(X_INTRODUCED_22_,X_INTRODUCED_230_,X_INTRODUCED_235_):: defines_var(X_INTRODUCED_235_);
constraint int_lin_le(X_INTRODUCED_194_,[X_INTRODUCED_85_,X_INTRODUCED_233_,X_INTRODUCED_235_],-3);
constraint array_int_element(X_INTRODUCED_23_,X_INTRODUCED_236_,X_INTRODUCED_237_):: defines_var(X_INTRODUCED_237_);
constraint array_var_int_element(X_INTRODUCED_23_,X_INTRODUCED_230_,X_INTRODUCED_239_):: defines_var(X_INTRODUCED_239_);
constraint int_lin_le(X_INTRODUCED_194_,[X_INTRODUCED_86_,X_INTRODUCED_237_,X_INTRODUCED_239_],-2);
constraint array_int_element(X_INTRODUCED_3_,X_INTRODUCED_240_,X_INTRODUCED_241_):: defines_var(X_INTRODUCED_241_);
constraint array_var_int_element(X_INTRODUCED_3_,X_INTRODUCED_192_,X_INTRODUCED_243_):: defines_var(X_INTRODUCED_243_);
constraint int_lin_le(X_INTRODUCED_194_,[0,X_INTRODUCED_241_,X_INTRODUCED_243_],0);
constraint array_int_element(X_INTRODUCED_4_,X_INTRODUCED_240_,X_INTRODUCED_244_):: defines_var(X_INTRODUCED_244_);
constraint array_var_int_element(X_INTRODUCED_4_,X_INTRODUCED_192_,X_INTRODUCED_246_):: defines_var(X_INTRODUCED_246_);
constraint int_lin_le(X_INTRODUCED_194_,[0,X_INTRODUCED_244_,X_INTRODUCED_246_],0);
constraint array_int_element(X_INTRODUCED_10_,X_INTRODUCED_247_,X_INTRODUCED_248_):: defines_var(X_INTRODUCED_248_);
constraint array_var_int_element(X_INTRODUCED_10_,X_INTRODUCED_205_,X_INTRODUCED_250_):: defines_var(X_INTRODUCED_250_);
constraint int_lin_le(X_INTRODUCED_194_,[0,X_INTRODUCED_248_,X_INTRODUCED_250_],0);
constraint array_int_element(X_INTRODUCED_11_,X_INTRODUCED_247_,X_INTRODUCED_251_):: defines_var(X_INTRODUCED_251_);
constraint array_var_int_element(X_INTRODUCED_11_,X_INTRODUCED_205_,X_INTRODUCED_253_):: defines_var(X_INTRODUCED_253_);
constraint int_lin_le(X_INTRODUCED_194_,[0,X_INTRODUCED_251_,X_INTRODUCED_253_],0);
constraint array_int_element(X_INTRODUCED_17_,X_INTRODUCED_254_,X_INTRODUCED_255_):: defines_var(X_INTRODUCED_255_);
constraint array_var_int_element(X_INTRODUCED_17_,X_INTRODUCED_218_,X_INTRODUCED_257_):: defines_var(X_INTRODUCED_257_);
constraint int_lin_le(X_INTRODUCED_194_,[0,X_INTRODUCED_255_,X_INTRODUCED_257_],0);
constraint array_int_element(X_INTRODUCED_18_,X_INTRODUCED_254_,X_INTRODUCED_258_):: defines_var(X_INTRODUCED_258_);
constraint array_var_int_element(X_INTRODUCED_18_,X_INTRODUCED_218_,X_INTRODUCED_260_):: defines_var(X_INTRODUCED_260_);
constraint int_lin_le(X_INTRODUCED_194_,[0,X_INTRODUCED_258_,X_INTRODUCED_260_],0);
constraint array_int_element(X_INTRODUCED_24_,X_INTRODUCED_261_,X_INTRODUCED_262_):: defines_var(X_INTRODUCED_262_);
constraint array_var_int_element(X_INTRODUCED_24_,X_INTRODUCED_230_,X_INTRODUCED_264_):: defines_var(X_INTRODUCED_264_);
constraint int_lin_le(X_INTRODUCED_194_,[0,X_INTRODUCED_262_,X_INTRODUCED_264_],0);
constraint array_int_element(X_INTRODUCED_25_,X_INTRODUCED_261_,X_INTRODUCED_265_):: defines_var(X_INTRODUCED_265_);
constraint array_var_int_element(X_INTRODUCED_25_,X_INTRODUCED_230_,X_INTRODUCED_267_):: defines_var(X_INTRODUCED_267_);
constraint int_lin_le(X_INTRODUCED_194_,[0,X_INTRODUCED_265_,X_INTRODUCED_267_],0);
constraint int_max(X_INTRODUCED_64_,X_INTRODUCED_63_,X_INTRODUCED_278_):: defines_var(X_INTRODUCED_278_);
constraint int_max(X_INTRODUCED_65_,X_INTRODUCED_278_,X_INTRODUCED_279_):: defines_var(X_INTRODUCED_279_);
constraint int_max(0,X_INTRODUCED_279_,X_INTRODUCED_280_):: defines_var(X_INTRODUCED_280_);
constraint int_max(0,X_INTRODUCED_280_,X_INTRODUCED_281_):: defines_var(X_INTRODUCED_281_);
constraint int_max(X_INTRODUCED_68_,X_INTRODUCED_281_,X_INTRODUCED_282_):: defines_var(X_INTRODUCED_282_);
constraint int_max(X_INTRODUCED_69_,X_INTRODUCED_282_,X_INTRODUCED_283_):: defines_var(X_INTRODUCED_283_);
constraint int_max(X_INTRODUCED_71_,X_INTRODUCED_70_,X_INTRODUCED_296_):: defines_var(X_INTRODUCED_296_);
constraint int_max(X_INTRODUCED_72_,X_INTRODUCED_296_,X_INTRODUCED_297_):: defines_var(X_INTRODUCED_297_);
constraint int_max(0,X_INTRODUCED_297_,X_INTRODUCED_298_):: defines_var(X_INTRODUCED_298_);
constraint int_max(0,X_INTRODUCED_298_,X_INTRODUCED_299_):: defines_var(X_INTRODUCED_299_);
constraint int_max(X_INTRODUCED_75_,X_INTRODUCED_299_,X_INTRODUCED_300_):: defines_var(X_INTRODUCED_300_);
constraint int_max(X_INTRODUCED_76_,X_INTRODUCED_300_,X_INTRODUCED_301_):: defines_var(X_INTRODUCED_301_);
constraint int_max(X_INTRODUCED_78_,X_INTRODUCED_77_,X_INTRODUCED_313_):: defines_var(X_INTRODUCED_313_);
constraint int_max(X_INTRODUCED_79_,X_INTRODUCED_313_,X_INTRODUCED_314_):: defines_var(X_INTRODUCED_314_);
constraint int_max(0,X_INTRODUCED_314_,X_INTRODUCED_315_):: defines_var(X_INTRODUCED_315_);
constraint int_max(0,X_INTRODUCED_315_,X_INTRODUCED_316_):: defines_var(X_INTRODUCED_316_);
constraint int_max(X_INTRODUCED_82_,X_INTRODUCED_316_,X_INTRODUCED_317_):: defines_var(X_INTRODUCED_317_);
constraint int_max(X_INTRODUCED_83_,X_INTRODUCED_317_,X_INTRODUCED_318_):: defines_var(X_INTRODUCED_318_);
constraint int_max(X_INTRODUCED_85_,X_INTRODUCED_84_,X_INTRODUCED_329_):: defines_var(X_INTRODUCED_329_);
constraint int_max(X_INTRODUCED_86_,X_INTRODUCED_329_,X_INTRODUCED_330_):: defines_var(X_INTRODUCED_330_);
constraint int_max(0,X_INTRODUCED_330_,X_INTRODUCED_331_):: defines_var(X_INTRODUCED_331_);
constraint int_max(0,X_INTRODUCED_331_,X_INTRODUCED_332_):: defines_var(X_INTRODUCED_332_);
constraint int_max(X_INTRODUCED_89_,X_INTRODUCED_332_,X_INTRODUCED_333_):: defines_var(X_INTRODUCED_333_);
constraint int_max(X_INTRODUCED_90_,X_INTRODUCED_333_,X_INTRODUCED_334_):: defines_var(X_INTRODUCED_334_);
constraint int_lin_eq(X_INTRODUCED_338_,[objective,X_INTRODUCED_283_,X_INTRODUCED_301_,X_INTRODUCED_318_,X_INTRODUCED_334_],0):: defines_var(objective);
solve :: seq_search([int_search(vehicle,first_fail,indomain_min,complete),int_search(X_INTRODUCED_340_,first_fail,indomain_min,complete),int_search(X_INTRODUCED_339_,first_fail,indomain_min,complete)]) minimize objective;
